
        $ From http://www.csplib.org/Problems/prob009/data/helmut.pdf
        $ Problem number 81
        $ Sequence length : 25
        language ESSENCE' 1.0
        letting sizemaster be 316
        letting sizes be sequence(1,3,9,12,21,26,30,33,34,35,38,39,40,41,53,56,59,69,79,85,96,103,111,117,120)
        